(set-logic QF_S)
(declare-fun T_8 () Bool)
(declare-fun T_SELECT_2 () Bool)
(declare-fun T_SELECT_3 () Bool)
(declare-fun T_a () Bool)
(declare-fun T_b () Bool)
(declare-fun I0_12 () Int)
(declare-fun PCTEMP_LHS_2 () Int)
(declare-fun PCTEMP_LHS_3 () Int)
(declare-fun T0_12 () String)
(declare-fun T1_12 () String)
(declare-fun T2_12 () String)
(declare-fun T3_12 () String)
(declare-fun T4_12 () String)
(declare-fun T5_12 () String)
(declare-fun var_0xINPUT_13852 () String)
(assert (= var_0xINPUT_13852 (str.++ T0_12 T1_12)))
(assert (= T1_12 (str.++ T2_12 T3_12)))
(assert (= T2_12 (str.++ T4_12 T5_12)))
(assert (not (str.in.re T4_12 (str.to.re ";"))))
(assert (= T5_12 ";"))
(assert T_b)
(assert (= T_b (not T_a)))
(assert (= T_a (< PCTEMP_LHS_3 0)))
(assert (= T_SELECT_2 (not (= PCTEMP_LHS_2 (- 1)))))
(assert T_8)
(assert (= T_8 (< (- 1) PCTEMP_LHS_2)))
(assert (= PCTEMP_LHS_3 (+ I0_12 PCTEMP_LHS_2)))
(assert (= T_SELECT_3 (not (= PCTEMP_LHS_3 (- 1)))))
(assert (= PCTEMP_LHS_2 (str.len T0_12))) ; len 0
(assert (= I0_12 (str.len T4_12))) ; len 1
(assert T_SELECT_3)
(check-sat)
